solution status: optimal solution found
objective value:                                   20
thing.thing.chamber[2].thingy.v1_y                   20 	(obj:0)
thing.thing.chamber[2].thingy.v1_z                   17 	(obj:0)
thing.thing.chamber[0].thingy.v1_y                   18 	(obj:0)
thing.thing.chamber[0].thingy.v1_z                   16 	(obj:0)
thing.thing.chamber[1].thingy.v8_y                   17 	(obj:0)
thing.thing.chamber[1].thingy.v8_z                   18 	(obj:0)
thing.lysis_flush_hole_y                           17 	(obj:0)
thing.lysis_flush_hole_z                           13 	(obj:0)
thing.thing.chamber[0].thingy.v7_y                   18 	(obj:0)
thing.thing.chamber[0].thingy.v7_z                   15 	(obj:0)
thing.thing.chamber[0].thingy.v2_y                   16 	(obj:0)
thing.thing.chamber[0].thingy.v2_z                   17 	(obj:0)
thing.thing.chamber[1].thingy.v1_y                   19 	(obj:0)
thing.thing.chamber[1].thingy.v1_z                   17 	(obj:0)
thing.horiz_ctrl_hole_y                            17 	(obj:0)
thing.horiz_ctrl_hole_z                            14 	(obj:0)
thing.thing.chamber[0].thingy.v9_y                   15 	(obj:0)
thing.thing.chamber[0].thingy.v9_z                   17 	(obj:0)
thing.thing.chamber[0].thingy.r2c_y                   19 	(obj:0)
thing.thing.chamber[0].thingy.r2c_z                   14 	(obj:0)
thing.thing.chamber[0].thingy.r3c_y                   15 	(obj:0)
thing.thing.chamber[0].thingy.r3c_z                   18 	(obj:0)
thing.thing.chamber[0].thingy.v3_y                   18 	(obj:0)
thing.thing.chamber[0].thingy.v3_z                   17 	(obj:0)
thing.thing.chamber[1].thingy.v4_y                   17 	(obj:0)
thing.thing.chamber[1].thingy.v4_z                   17 	(obj:0)
thing.thing.chamber[0].thingy.r4c_y                   17 	(obj:0)
thing.thing.chamber[0].thingy.r4c_z                   19 	(obj:0)
thing.elute_ctrl_hole_y                            16 	(obj:0)
thing.elute_ctrl_hole_z                            14 	(obj:0)
thing.thing.chamber[1].thingy.v7_y                   17 	(obj:0)
thing.thing.chamber[1].thingy.v7_z                   15 	(obj:0)
thing.thing.chamber[1].thingy.v5_y                   18 	(obj:0)
thing.thing.chamber[1].thingy.v5_z                   14 	(obj:0)
thing.lysis_ctrl_hole_y                            16 	(obj:0)
thing.lysis_ctrl_hole_z                            13 	(obj:0)
thing.elute_flush_hole_y                           16 	(obj:0)
thing.elute_flush_hole_z                           18 	(obj:0)
thing.bead_ctrl_hole_y                             15 	(obj:0)
thing.bead_ctrl_hole_z                             15 	(obj:0)
thing.wash_ctrl_hole_y                             16 	(obj:0)
thing.wash_ctrl_hole_z                             20 	(obj:0)
thing.wash_flush_hole_y                            16 	(obj:0)
thing.wash_flush_hole_z                            19 	(obj:0)
thing.thing.chamber[0].thingy.v10_y                   19 	(obj:0)
thing.thing.chamber[0].thingy.v10_z                   19 	(obj:0)
thing.thing.chamber[1].thingy.v6_y                   19 	(obj:0)
thing.thing.chamber[1].thingy.v6_z                   16 	(obj:0)
thing.thing.chamber[0].thingy.v5_y                   17 	(obj:0)
thing.thing.chamber[0].thingy.v5_z                   16 	(obj:0)
thing.thing.chamber[1].thingy.v9_y                   18 	(obj:0)
thing.thing.chamber[1].thingy.v9_z                   18 	(obj:0)
x57                                                 1 	(obj:1)
x58                                                 2 	(obj:1)
x62                                                 1 	(obj:1)
x66                                                 2 	(obj:1)
x67                                                 1 	(obj:1)
x76                                                 1 	(obj:1)
x77                                                 2 	(obj:1)
x80                                                 1 	(obj:1)
x85                                                 1 	(obj:1)
x92                                                 1 	(obj:1)
x98                                                 1 	(obj:1)
x102                                                1 	(obj:1)
x133                                                2 	(obj:1)
x134                                                1 	(obj:1)
x138                                                1 	(obj:1)
x145                                                1 	(obj:1)
